feasible solution found by trivial heuristic after 0.1 seconds, objective value 0.000000e+00
presolving:
(round 1, fast)       3916 del vars, 7832 del conss, 0 add conss, 122 chg bounds, 3794 chg sides, 0 chg coeffs, 0 upgd conss, 0 impls, 19695 clqs
(round 2, fast)       4038 del vars, 7832 del conss, 0 add conss, 122 chg bounds, 3794 chg sides, 0 chg coeffs, 0 upgd conss, 0 impls, 19695 clqs
   (0.2s) running MILP presolver
   (0.2s) MILP presolver found nothing
(round 3, exhaustive) 4038 del vars, 7832 del conss, 0 add conss, 122 chg bounds, 3794 chg sides, 0 chg coeffs, 19695 upgd conss, 0 impls, 19695 clqs
   (0.4s) probing: 51/122 (41.8%) - 0 fixings, 0 aggregations, 0 implications, 0 bound changes
   (0.4s) probing aborted: 50/50 successive totally useless probings
   (0.5s) symmetry computation started: requiring (bin +, int -, cont +), (fixed: bin -, int +, cont -)
   (0.5s) no symmetry present
presolving (4 rounds: 4 fast, 2 medium, 2 exhaustive):
 4038 deleted vars, 7832 deleted constraints, 0 added constraints, 122 tightened bounds, 0 added holes, 3794 changed sides, 0 changed coefficients
 0 implications, 19695 cliques
presolved problem has 122 variables (122 bin, 0 int, 0 impl, 0 cont) and 19695 constraints
  19695 constraints of type <setppc>
Presolving Time: 0.50

 time | node  | left  |LP iter|LP it/n|mem/heur|mdpt |vars |cons |rows |cuts |sepa|confs|strbr|  dualbound   | primalbound  |  gap   | compl. 
t 0.6s|     1 |     0 |     0 |     - | trivial|   0 | 122 |  19k|   0 |   0 |  0 |   0 |   0 | 8.066858e+06 | 8.048779e+06 |   0.22%| unknown
p 0.6s|     1 |     0 |     0 |     - |  clique|   0 | 122 |  19k|  19k|   0 |  0 |   0 |   0 | 8.066858e+06 | 8.050204e+06 |   0.21%| unknown
  1.5s|     1 |     0 |  1293 |     - |   131M |   0 | 122 |  19k|  19k|   0 |  0 |   0 |   0 | 8.051398e+06 | 8.050204e+06 |   0.01%| unknown
  1.7s|     1 |     0 |  1517 |     - |   134M |   0 | 122 |  19k|  19k|   1 |  1 |   0 |   0 | 8.051389e+06 | 8.050204e+06 |   0.01%| unknown
  1.9s|     1 |     0 |  1751 |     - |   137M |   0 | 122 |  19k|  19k|   2 |  2 |   0 |   0 | 8.051385e+06 | 8.050204e+06 |   0.01%| unknown
  2.0s|     1 |     0 |  1931 |     - |   141M |   0 | 122 |  19k|  19k|   3 |  3 |   0 |   0 | 8.051383e+06 | 8.050204e+06 |   0.01%| unknown
  2.2s|     1 |     0 |  2099 |     - |   143M |   0 | 122 |  19k|  19k|   4 |  4 |   0 |   0 | 8.051382e+06 | 8.050204e+06 |   0.01%| unknown
  2.4s|     1 |     0 |  2238 |     - |   146M |   0 | 122 |  19k|  19k|   5 |  5 |   0 |   0 | 8.051381e+06 | 8.050204e+06 |   0.01%| unknown
  2.5s|     1 |     0 |  2395 |     - |   149M |   0 | 122 |  19k|  19k|   6 |  6 |   0 |   0 | 8.051380e+06 | 8.050204e+06 |   0.01%| unknown
  2.6s|     1 |     0 |  2530 |     - |   151M |   0 | 122 |  19k|  19k|   7 |  7 |   0 |   0 | 8.051380e+06 | 8.050204e+06 |   0.01%| unknown
  2.8s|     1 |     0 |  2723 |     - |   154M |   0 | 122 |  19k|  19k|   8 |  8 |   0 |   0 | 8.051379e+06 | 8.050204e+06 |   0.01%| unknown
  3.0s|     1 |     0 |  2913 |     - |   157M |   0 | 122 |  19k|  19k|   9 |  9 |   0 |   0 | 8.051379e+06 | 8.050204e+06 |   0.01%| unknown
  3.2s|     1 |     0 |  3133 |     - |   161M |   0 | 122 |  19k|  19k|  10 | 10 |   0 |   0 | 8.051379e+06 | 8.050204e+06 |   0.01%| unknown
  3.3s|     1 |     0 |  3210 |     - |   163M |   0 | 122 |  19k|  19k|  11 | 11 |   0 |   0 | 8.051379e+06 | 8.050204e+06 |   0.01%| unknown
  3.3s|     1 |     0 |  3270 |     - |   165M |   0 | 122 |  19k|  19k|  12 | 12 |   0 |   0 | 8.051379e+06 | 8.050204e+06 |   0.01%| unknown
 time | node  | left  |LP iter|LP it/n|mem/heur|mdpt |vars |cons |rows |cuts |sepa|confs|strbr|  dualbound   | primalbound  |  gap   | compl. 
  3.4s|     1 |     0 |  3329 |     - |   167M |   0 | 122 |  19k|  19k|  13 | 13 |   0 |   0 | 8.051378e+06 | 8.050204e+06 |   0.01%| unknown
  3.5s|     1 |     0 |  3373 |     - |   169M |   0 | 122 |  19k|  19k|  14 | 14 |   0 |   0 | 8.051378e+06 | 8.050204e+06 |   0.01%| unknown
  3.6s|     1 |     0 |  3427 |     - |   171M |   0 | 122 |  19k|  19k|  15 | 15 |   0 |   0 | 8.051378e+06 | 8.050204e+06 |   0.01%| unknown
  3.6s|     1 |     0 |  3475 |     - |   173M |   0 | 122 |  19k|  19k|  16 | 16 |   0 |   0 | 8.051378e+06 | 8.050204e+06 |   0.01%| unknown
  3.7s|     1 |     0 |  3518 |     - |   175M |   0 | 122 |  19k|  19k|  17 | 17 |   0 |   0 | 8.051378e+06 | 8.050204e+06 |   0.01%| unknown
  3.8s|     1 |     0 |  3539 |     - |   177M |   0 | 122 |  19k|  19k|  18 | 18 |   0 |   0 | 8.051378e+06 | 8.050204e+06 |   0.01%| unknown
  3.9s|     1 |     0 |  3579 |     - |   179M |   0 | 122 |  19k|  19k|  19 | 19 |   0 |   0 | 8.051378e+06 | 8.050204e+06 |   0.01%| unknown
  3.9s|     1 |     0 |  3617 |     - |   181M |   0 | 122 |  19k|  19k|  20 | 20 |   0 |   0 | 8.051378e+06 | 8.050204e+06 |   0.01%| unknown
d 4.5s|     1 |     0 |  4567 |     - |farkasdi|   0 | 122 |  19k|  19k|   0 | 20 |   0 |   0 | 8.051378e+06 | 8.050301e+06 |   0.01%| unknown
  4.6s|     1 |     0 |  4567 |     - |   182M |   0 | 122 |  19k|  19k|  20 | 20 |   0 |   0 | 8.051378e+06 | 8.050301e+06 |   0.01%| unknown
  4.7s|     1 |     0 |  4601 |     - |   182M |   0 | 122 |  19k|  19k|  21 | 21 |   0 |   0 | 8.051378e+06 | 8.050301e+06 |   0.01%| unknown
  4.7s|     1 |     0 |  4619 |     - |   182M |   0 | 122 |  19k|  19k|  22 | 22 |   0 |   0 | 8.051378e+06 | 8.050301e+06 |   0.01%| unknown
 17.4s|     1 |     2 |  4619 |     - |   182M |   0 | 122 |  19k|  19k|  22 | 22 |   0 |  25 | 8.051359e+06 | 8.050301e+06 |   0.01%| unknown
*18.0s|     2 |     1 |  5258 |1599.0 |strongbr|   1 | 122 |  19k|  19k|  22 |  1 |   0 |  26 | 8.051359e+06 | 8.050718e+06 |   0.01%| unknown

SCIP Status        : problem is solved [optimal solution found]
Solving Time (sec) : 34.99
Solving Nodes      : 3
Primal Bound       : +8.05071756948001e+06 (36 solutions)
Dual Bound         : +8.05071756948001e+06
Gap                : 0.00 %
Solve Status: optimal
Solve Time: 35.00 seconds
